words_hard_train/2501.qaiger
aag 39 16 0 1 23
2
4
8
10
16
18
24
26
30
32
40
42
46
48
56
58
78
6 2 5
12 8 11
14 7 13
20 16 19
22 14 21
28 25 27
34 30 33
36 28 35
38 22 36
44 40 43
50 46 49
52 45 51
54 38 52
60 57 59
62 19 11
64 62 58
66 5 43
68 66 27
70 33 49
72 68 70
74 64 72
76 61 75
78 55 77
i0 2 y1[1]
i1 1 x1[1]
i2 2 y1[3]
i3 1 x1[3]
i4 2 y1[2]
i5 1 x1[2]
i6 2 y1[0]
i7 1 x1[0]
i8 2 y1[5]
i9 1 x1[5]
i10 2 y1[4]
i11 1 x1[4]
i12 2 y1[6]
i13 1 x1[6]
i14 2 y1[7]
i15 1 x1[7]
o0 bv[0]
c
simplified
  >=
    or
      2 y1
      1 x1
    or
      1
      abs
        1 x1
