words_hard_train/2501.qaiger.qdimacs
p cnf 39 70
a 2 5 9 13 16 21 24 29 0
e 1 3 4 6 7 8 10 11 12 14 15 17 18 19 20 22 23 25 26 27 28 30 31 32 33 34 35 36 37 38 39 0
-1 2 3 0
1 -3 0
-2 -3 0
-4 5 6 0
4 -6 0
-5 -6 0
3 6 7 0
-3 -7 0
-6 -7 0
-8 9 10 0
8 -10 0
-9 -10 0
-7 10 11 0
7 -11 0
-10 -11 0
12 13 14 0
-12 -14 0
-13 -14 0
-15 16 17 0
15 -17 0
-16 -17 0
-14 17 18 0
14 -18 0
-17 -18 0
-11 -18 19 0
11 -19 0
18 -19 0
-20 21 22 0
20 -22 0
-21 -22 0
-23 24 25 0
23 -25 0
-24 -25 0
22 25 26 0
-22 -26 0
-25 -26 0
-19 -26 27 0
19 -27 0
26 -27 0
28 29 30 0
-28 -30 0
-29 -30 0
9 5 31 0
-9 -31 0
-5 -31 0
-31 -29 32 0
31 -32 0
29 -32 0
2 21 33 0
-2 -33 0
-21 -33 0
-33 13 34 0
33 -34 0
-13 -34 0
16 24 35 0
-16 -35 0
-24 -35 0
-34 -35 36 0
34 -36 0
35 -36 0
-32 -36 37 0
32 -37 0
36 -37 0
30 37 38 0
-30 -38 0
-37 -38 0
27 38 39 0
-27 -39 0
-38 -39 0
39 0
